c WARNING: for repeatability, setting FPU to use double precision
d VARIABLES            226176       
d CONSTRAINTS          838564       
c ============================[ Problem Statistics ]=============================
c |                                                                             |
c |  Number of variables:        226176                                         |
c |  Number of clauses:          838564                                         |
c |  Parse time:                   0.14 s                                       |
c |                                                                             |
c ============================[ Search Statistics ]==============================
c | Conflicts |          ORIGINAL         |          LEARNT          | Progress |
c |           |    Vars  Clauses Literals |    Limit  Clauses Lit/Cl |          |
c ===============================================================================
c |       100 |  187524   738934  1853651 |   270942      100      4 | 17.089 % |
c |       250 |  187524   738934  1853651 |   298036      250     11 | 17.089 % |
c |       475 |  187524   738934  1853651 |   327840      475     20 | 17.089 % |
c |       812 |  187524   738934  1853651 |   360624      812     24 | 17.089 % |
c |      1318 |  187524   738934  1853651 |   396686     1318     29 | 17.089 % |
c |      2077 |  187524   738934  1853651 |   436355     2077     23 | 17.089 % |
c |      3216 |  187524   738934  1853651 |   479991     3216     24 | 17.089 % |
c |      4924 |  187524   738934  1853651 |   527990     4924     32 | 17.089 % |
c |      7486 |  187524   738934  1853651 |   580789     7486     66 | 17.089 % |
c |     11330 |  187524   738934  1853651 |   638868    11330     71 | 17.089 % |
c |     17096 |  187524   738934  1853651 |   702754    17096     59 | 17.089 % |
c |     25745 |  187524   738934  1853651 |   773030    25745     57 | 17.089 % |
c |     38719 |  187524   738934  1853651 |   850333    38719     77 | 17.089 % |
c |     58180 |  187524   738934  1853651 |   935366    58180     88 | 17.089 % |
c |     87372 |  187524   738934  1853651 |  1028903    87372    103 | 17.089 % |
c |    131161 |  187524   738934  1853651 |  1131793   131161    128 | 17.089 % |
c |    196845 |  187522   738926  1853631 |  1244973   196843    165 | 17.090 % |
c |    295371 |  187522   738926  1853631 |  1369470   295369    159 | 17.090 % |
c |    443160 |  187522   738926  1853631 |  1506417   443158    158 | 17.090 % |
c |    664843 |  187522   738926  1853631 |  1657059   664841    183 | 17.090 % |
c ===============================================================================
c restarts              : 1657
c conflicts             : 776386         (2029 /sec)
c decisions             : 4456200        (0.00 % random) (11643 /sec)
c propagations          : 1473233580     (3849257 /sec)
c conflict literals     : 147317936      (18.04 % deleted)
d RESTARTS             1657
d FAILURES             776386       
d NODES                4456200      
d BACKTRACKS           4456200      
d PROPAGATIONS         1473233580   
d NOGOODSIZE           189.75 
d MEMORY               999.00 
d TIME                 382.732 

s SATISFIABLE
